%%%mzn-stat: initTime=0.06034004
%%%mzn-stat: objective=230
%%%mzn-stat: nodes=80389
%%%mzn-stat: restarts=21
%%%mzn-stat: peakDepth=563
%%%mzn-stat: solveTime=21.011975209
%%%mzn-stat: variables=1076
%%%mzn-stat: propagators=5733
%%%mzn-stat: failures=57779
%%%mzn-stat: propagations=27152683
%%%mzn-stat: nogoods=57779
%%%mzn-stat: AverageConflictSize=11.72952110628429
%%%mzn-stat: NumUnitNogoodsLearned=170
%%%mzn-stat: AverageLearnedNogoodLength=27.47872064244795
%%%mzn-stat: AverageBacktrackAmount=0
%%%mzn-stat: AverageLbd=13.098478686027796
%%%mzn-stat-end
maxleg = 230;
succ = array1d(1..100,[49, 9, 25, 39, 13, 40, 16, 4, 8, 55, 32, 99, 20, 38, 90, 69, 57, 45, 44, 73, 71, 41, 72, 33, 89, 7, 74, 23, 1, 56, 95, 18, 77, 12, 36, 78, 2, 81, 88, 43, 30, 5, 59, 93, 85, 19, 27, 79, 10, 61, 53, 48, 21, 34, 76, 75, 29, 98, 46, 94, 68, 67, 50, 70, 51, 84, 24, 92, 11, 42, 26, 31, 97, 35, 65, 91, 58, 82, 17, 22, 52, 6, 86, 3, 64, 62, 54, 28, 83, 63, 66, 14, 37, 96, 60, 15, 100, 87, 80, 47]);
% time elapsed: 23.63 s
----------
%%%mzn-stat: initTime=0.06034004
%%%mzn-stat: objective=228
%%%mzn-stat: nodes=92309
%%%mzn-stat: restarts=31
%%%mzn-stat: peakDepth=588
%%%mzn-stat: solveTime=23.169512276
%%%mzn-stat: variables=1076
%%%mzn-stat: propagators=5733
%%%mzn-stat: failures=64385
%%%mzn-stat: propagations=30372771
%%%mzn-stat: nogoods=64385
%%%mzn-stat: AverageConflictSize=11.441236312805778
%%%mzn-stat: NumUnitNogoodsLearned=170
%%%mzn-stat: AverageLearnedNogoodLength=26.58822707152287
%%%mzn-stat: AverageBacktrackAmount=0
%%%mzn-stat: AverageLbd=12.817861303098548
%%%mzn-stat-end
maxleg = 228;
succ = array1d(1..100,[49, 9, 25, 39, 13, 40, 16, 4, 8, 55, 32, 99, 20, 38, 90, 69, 57, 45, 44, 73, 75, 41, 72, 33, 89, 7, 74, 23, 1, 56, 95, 18, 77, 12, 36, 78, 2, 81, 88, 43, 30, 5, 59, 93, 85, 19, 27, 79, 10, 15, 53, 48, 71, 34, 76, 65, 29, 98, 46, 96, 63, 67, 50, 70, 51, 84, 21, 92, 11, 42, 26, 31, 97, 35, 22, 91, 58, 82, 17, 61, 52, 6, 86, 3, 64, 62, 54, 28, 83, 68, 66, 14, 37, 24, 60, 94, 100, 87, 80, 47]);
% time elapsed: 25.78 s
----------
%%%mzn-stat: initTime=0.06034004
%%%mzn-stat: objective=227
%%%mzn-stat: nodes=93271
%%%mzn-stat: restarts=32
%%%mzn-stat: peakDepth=638
%%%mzn-stat: solveTime=23.253430299
%%%mzn-stat: variables=1076
%%%mzn-stat: propagators=5733
%%%mzn-stat: failures=64519
%%%mzn-stat: propagations=30465079
%%%mzn-stat: nogoods=64519
%%%mzn-stat: AverageConflictSize=11.43667756784823
%%%mzn-stat: NumUnitNogoodsLearned=170
%%%mzn-stat: AverageLearnedNogoodLength=26.59980780855252
%%%mzn-stat: AverageBacktrackAmount=0
%%%mzn-stat: AverageLbd=12.819340039368248
%%%mzn-stat-end
maxleg = 227;
succ = array1d(1..100,[49, 9, 25, 39, 13, 40, 16, 4, 8, 55, 32, 99, 20, 38, 90, 69, 57, 45, 44, 73, 75, 41, 72, 33, 89, 7, 74, 23, 1, 56, 95, 18, 77, 12, 36, 78, 2, 81, 88, 43, 30, 5, 59, 93, 85, 19, 27, 79, 10, 15, 53, 48, 71, 34, 76, 65, 29, 98, 46, 96, 50, 67, 61, 70, 51, 84, 21, 92, 11, 42, 26, 31, 97, 35, 22, 91, 58, 82, 17, 63, 52, 6, 86, 3, 64, 62, 54, 28, 83, 68, 66, 14, 37, 24, 60, 94, 100, 87, 80, 47]);
% time elapsed: 25.87 s
----------
%%%mzn-stat: initTime=0.06034004
%%%mzn-stat: objective=226
%%%mzn-stat: nodes=95042
%%%mzn-stat: restarts=33
%%%mzn-stat: peakDepth=649
%%%mzn-stat: solveTime=23.475295657
%%%mzn-stat: variables=1076
%%%mzn-stat: propagators=5733
%%%mzn-stat: failures=65176
%%%mzn-stat: propagations=30731266
%%%mzn-stat: nogoods=65176
%%%mzn-stat: AverageConflictSize=11.417623051429974
%%%mzn-stat: NumUnitNogoodsLearned=170
%%%mzn-stat: AverageLearnedNogoodLength=26.555081625138087
%%%mzn-stat: AverageBacktrackAmount=0
%%%mzn-stat: AverageLbd=12.803301828894071
%%%mzn-stat-end
maxleg = 226;
succ = array1d(1..100,[49, 9, 25, 39, 13, 40, 16, 4, 8, 55, 32, 99, 20, 38, 90, 69, 57, 45, 44, 73, 75, 41, 72, 33, 89, 7, 74, 23, 1, 56, 95, 18, 77, 12, 36, 78, 2, 81, 88, 43, 30, 5, 59, 93, 85, 19, 27, 79, 10, 15, 53, 48, 71, 34, 76, 65, 29, 98, 46, 96, 50, 67, 61, 70, 51, 84, 21, 92, 11, 42, 26, 31, 97, 35, 22, 91, 58, 82, 17, 63, 52, 6, 86, 3, 64, 62, 54, 28, 83, 68, 66, 14, 37, 24, 60, 94, 100, 87, 80, 47]);
% time elapsed: 26.09 s
----------
%%%mzn-stat: initTime=0.06034004
%%%mzn-stat: objective=225
%%%mzn-stat: nodes=96001
%%%mzn-stat: restarts=34
%%%mzn-stat: peakDepth=649
%%%mzn-stat: solveTime=23.542641588
%%%mzn-stat: variables=1076
%%%mzn-stat: propagators=5733
%%%mzn-stat: failures=65297
%%%mzn-stat: propagations=30824192
%%%mzn-stat: nogoods=65297
%%%mzn-stat: AverageConflictSize=11.410049466284821
%%%mzn-stat: NumUnitNogoodsLearned=170
%%%mzn-stat: AverageLearnedNogoodLength=26.55500252691548
%%%mzn-stat: AverageBacktrackAmount=0
%%%mzn-stat: AverageLbd=12.80519778856609
%%%mzn-stat-end
maxleg = 225;
succ = array1d(1..100,[49, 9, 25, 39, 13, 40, 16, 4, 8, 55, 32, 99, 20, 38, 90, 69, 57, 45, 44, 73, 75, 41, 72, 33, 89, 7, 74, 23, 1, 56, 95, 18, 77, 12, 36, 78, 2, 81, 88, 43, 30, 5, 59, 93, 85, 19, 27, 79, 10, 15, 53, 48, 71, 34, 76, 65, 29, 98, 46, 96, 50, 67, 61, 70, 51, 84, 21, 92, 11, 42, 26, 31, 97, 35, 22, 91, 58, 82, 17, 63, 52, 6, 86, 3, 64, 62, 54, 28, 83, 68, 66, 14, 37, 24, 60, 94, 100, 87, 80, 47]);
% time elapsed: 26.16 s
----------
%%%mzn-stat: initTime=0.06034004
%%%mzn-stat: objective=224
%%%mzn-stat: nodes=97179
%%%mzn-stat: restarts=35
%%%mzn-stat: peakDepth=659
%%%mzn-stat: solveTime=23.682668934
%%%mzn-stat: variables=1076
%%%mzn-stat: propagators=5733
%%%mzn-stat: failures=65658
%%%mzn-stat: propagations=31057604
%%%mzn-stat: nogoods=65658
%%%mzn-stat: AverageConflictSize=11.383700386853087
%%%mzn-stat: NumUnitNogoodsLearned=170
%%%mzn-stat: AverageLearnedNogoodLength=26.53705565201499
%%%mzn-stat: AverageBacktrackAmount=0
%%%mzn-stat: AverageLbd=12.808477260958298
%%%mzn-stat-end
maxleg = 224;
succ = array1d(1..100,[49, 9, 25, 39, 13, 40, 16, 4, 8, 55, 32, 99, 20, 38, 90, 69, 57, 45, 44, 73, 75, 41, 72, 33, 89, 7, 74, 23, 1, 56, 95, 18, 77, 12, 36, 78, 2, 81, 88, 43, 30, 5, 59, 93, 85, 19, 27, 79, 10, 15, 53, 48, 71, 34, 76, 65, 29, 98, 46, 96, 50, 67, 61, 70, 51, 84, 21, 92, 11, 42, 26, 31, 97, 35, 22, 91, 58, 82, 17, 63, 52, 6, 86, 3, 64, 62, 54, 28, 83, 68, 66, 14, 37, 24, 60, 94, 100, 87, 80, 47]);
% time elapsed: 26.31 s
----------
%%%mzn-stat: initTime=0.06034004
%%%mzn-stat: objective=223
%%%mzn-stat: nodes=100133
%%%mzn-stat: restarts=36
%%%mzn-stat: peakDepth=659
%%%mzn-stat: solveTime=24.199813639
%%%mzn-stat: variables=1076
%%%mzn-stat: propagators=5733
%%%mzn-stat: failures=67196
%%%mzn-stat: propagations=31703205
%%%mzn-stat: nogoods=67196
%%%mzn-stat: AverageConflictSize=11.341820941722721
%%%mzn-stat: NumUnitNogoodsLearned=170
%%%mzn-stat: AverageLearnedNogoodLength=26.438999345199118
%%%mzn-stat: AverageBacktrackAmount=0
%%%mzn-stat: AverageLbd=12.752038811834037
%%%mzn-stat-end
maxleg = 223;
succ = array1d(1..100,[49, 9, 25, 39, 13, 40, 16, 4, 8, 55, 32, 99, 20, 38, 90, 69, 57, 45, 44, 73, 75, 41, 72, 33, 89, 7, 74, 23, 1, 56, 95, 18, 77, 12, 36, 78, 2, 81, 88, 43, 30, 5, 59, 93, 85, 19, 27, 79, 10, 15, 53, 48, 71, 34, 76, 65, 29, 98, 46, 96, 50, 67, 61, 70, 51, 84, 21, 92, 11, 42, 26, 31, 97, 35, 22, 91, 58, 82, 17, 63, 52, 6, 86, 3, 64, 62, 54, 28, 83, 68, 66, 14, 37, 24, 60, 94, 100, 87, 80, 47]);
% time elapsed: 26.83 s
----------
%%%mzn-stat: initTime=0.06034004
%%%mzn-stat: objective=222
%%%mzn-stat: nodes=101898
%%%mzn-stat: restarts=37
%%%mzn-stat: peakDepth=659
%%%mzn-stat: solveTime=24.509741678
%%%mzn-stat: variables=1076
%%%mzn-stat: propagators=5733
%%%mzn-stat: failures=67797
%%%mzn-stat: propagations=32056425
%%%mzn-stat: nogoods=67797
%%%mzn-stat: AverageConflictSize=11.308494476156762
%%%mzn-stat: NumUnitNogoodsLearned=170
%%%mzn-stat: AverageLearnedNogoodLength=26.43745298464534
%%%mzn-stat: AverageBacktrackAmount=0
%%%mzn-stat: AverageLbd=12.748720444857442
%%%mzn-stat-end
maxleg = 222;
succ = array1d(1..100,[49, 9, 25, 39, 13, 40, 16, 4, 8, 55, 32, 99, 20, 38, 90, 69, 57, 45, 44, 73, 75, 41, 72, 33, 89, 7, 74, 23, 1, 56, 95, 18, 77, 12, 36, 78, 2, 81, 88, 43, 30, 5, 59, 93, 85, 19, 27, 79, 10, 15, 53, 48, 71, 34, 76, 65, 29, 98, 46, 96, 50, 67, 61, 70, 51, 84, 21, 92, 11, 42, 26, 31, 97, 35, 22, 91, 58, 82, 17, 63, 52, 6, 86, 3, 64, 62, 54, 28, 83, 68, 66, 14, 37, 24, 60, 94, 100, 87, 80, 47]);
% time elapsed: 27.14 s
----------
%%%mzn-stat: initTime=0.06034004
%%%mzn-stat: objective=221
%%%mzn-stat: nodes=103964
%%%mzn-stat: restarts=38
%%%mzn-stat: peakDepth=659
%%%mzn-stat: solveTime=24.850867955
%%%mzn-stat: variables=1076
%%%mzn-stat: propagators=5733
%%%mzn-stat: failures=68693
%%%mzn-stat: propagations=32532549
%%%mzn-stat: nogoods=68693
%%%mzn-stat: AverageConflictSize=11.27317193891663
%%%mzn-stat: NumUnitNogoodsLearned=170
%%%mzn-stat: AverageLearnedNogoodLength=26.386706069031778
%%%mzn-stat: AverageBacktrackAmount=0
%%%mzn-stat: AverageLbd=12.734194168255863
%%%mzn-stat-end
maxleg = 221;
succ = array1d(1..100,[49, 9, 25, 39, 13, 40, 16, 4, 8, 55, 32, 99, 20, 38, 90, 69, 57, 45, 44, 73, 75, 41, 72, 33, 89, 7, 74, 23, 1, 56, 95, 18, 77, 12, 36, 78, 2, 81, 88, 43, 30, 5, 59, 93, 85, 19, 27, 79, 10, 15, 53, 48, 71, 34, 76, 65, 29, 98, 46, 96, 50, 67, 61, 70, 51, 84, 21, 92, 11, 42, 26, 31, 97, 35, 22, 91, 58, 82, 17, 63, 52, 6, 86, 3, 64, 62, 54, 28, 83, 68, 66, 14, 37, 24, 60, 94, 100, 87, 80, 47]);
% time elapsed: 27.49 s
----------
%%%mzn-stat: initTime=0.06034004
%%%mzn-stat: objective=220
%%%mzn-stat: nodes=107326
%%%mzn-stat: restarts=39
%%%mzn-stat: peakDepth=659
%%%mzn-stat: solveTime=25.601758754
%%%mzn-stat: variables=1076
%%%mzn-stat: propagators=5733
%%%mzn-stat: failures=70754
%%%mzn-stat: propagations=33547074
%%%mzn-stat: nogoods=70754
%%%mzn-stat: AverageConflictSize=11.189614721429177
%%%mzn-stat: NumUnitNogoodsLearned=170
%%%mzn-stat: AverageLearnedNogoodLength=26.400585125929275
%%%mzn-stat: AverageBacktrackAmount=0
%%%mzn-stat: AverageLbd=12.720552901602737
%%%mzn-stat-end
maxleg = 220;
succ = array1d(1..100,[49, 9, 25, 39, 13, 40, 16, 4, 8, 55, 32, 99, 20, 38, 90, 69, 57, 45, 44, 73, 75, 41, 72, 33, 89, 7, 74, 23, 1, 56, 95, 18, 77, 12, 36, 78, 2, 81, 88, 43, 30, 5, 59, 93, 85, 19, 27, 79, 10, 15, 53, 48, 71, 34, 76, 65, 29, 98, 46, 96, 50, 67, 61, 70, 51, 84, 21, 92, 11, 42, 26, 31, 97, 35, 22, 91, 58, 82, 17, 63, 52, 6, 86, 3, 64, 62, 54, 28, 83, 68, 66, 14, 37, 24, 60, 94, 100, 87, 80, 47]);
% time elapsed: 28.24 s
----------
%%%mzn-stat: initTime=0.06034004
%%%mzn-stat: objective=219
%%%mzn-stat: nodes=108678
%%%mzn-stat: restarts=40
%%%mzn-stat: peakDepth=659
%%%mzn-stat: solveTime=25.795542465
%%%mzn-stat: variables=1076
%%%mzn-stat: propagators=5733
%%%mzn-stat: failures=71212
%%%mzn-stat: propagations=33778923
%%%mzn-stat: nogoods=71212
%%%mzn-stat: AverageConflictSize=11.171501994045947
%%%mzn-stat: NumUnitNogoodsLearned=170
%%%mzn-stat: AverageLearnedNogoodLength=26.387167893051732
%%%mzn-stat: AverageBacktrackAmount=0
%%%mzn-stat: AverageLbd=12.716522496208505
%%%mzn-stat-end
maxleg = 219;
succ = array1d(1..100,[49, 9, 25, 39, 13, 40, 16, 4, 8, 55, 32, 99, 20, 38, 90, 69, 57, 45, 44, 73, 75, 41, 72, 33, 89, 7, 74, 23, 1, 56, 95, 18, 77, 12, 36, 78, 2, 81, 88, 43, 30, 5, 59, 93, 85, 19, 27, 79, 10, 15, 53, 48, 71, 34, 76, 65, 29, 98, 46, 96, 50, 67, 61, 70, 51, 84, 21, 92, 11, 42, 26, 31, 97, 35, 22, 91, 58, 82, 17, 63, 52, 6, 86, 3, 64, 62, 54, 28, 83, 68, 66, 14, 37, 24, 60, 94, 100, 87, 80, 47]);
% time elapsed: 28.45 s
----------
%%%mzn-stat: initTime=0.06034004
%%%mzn-stat: objective=218
%%%mzn-stat: nodes=110278
%%%mzn-stat: restarts=41
%%%mzn-stat: peakDepth=659
%%%mzn-stat: solveTime=25.997808029
%%%mzn-stat: variables=1076
%%%mzn-stat: propagators=5733
%%%mzn-stat: failures=71743
%%%mzn-stat: propagations=34048473
%%%mzn-stat: nogoods=71743
%%%mzn-stat: AverageConflictSize=11.14786111537014
%%%mzn-stat: NumUnitNogoodsLearned=170
%%%mzn-stat: AverageLearnedNogoodLength=26.35812553141073
%%%mzn-stat: AverageBacktrackAmount=0
%%%mzn-stat: AverageLbd=12.708975091646572
%%%mzn-stat-end
maxleg = 218;
succ = array1d(1..100,[49, 9, 25, 39, 13, 40, 16, 4, 8, 55, 32, 99, 20, 38, 90, 69, 57, 45, 44, 73, 75, 41, 72, 33, 89, 7, 74, 23, 1, 56, 95, 18, 77, 12, 36, 78, 2, 81, 88, 43, 30, 5, 59, 93, 85, 19, 27, 79, 10, 15, 53, 48, 71, 34, 76, 65, 29, 98, 46, 96, 50, 67, 61, 70, 51, 84, 21, 92, 11, 42, 26, 31, 97, 35, 22, 91, 58, 82, 17, 63, 52, 6, 86, 3, 64, 62, 54, 28, 83, 68, 66, 14, 37, 24, 60, 94, 100, 87, 80, 47]);
% time elapsed: 28.65 s
----------
%%%mzn-stat: initTime=0.06034004
%%%mzn-stat: objective=217
%%%mzn-stat: nodes=112671
%%%mzn-stat: restarts=42
%%%mzn-stat: peakDepth=659
%%%mzn-stat: solveTime=26.497588821
%%%mzn-stat: variables=1076
%%%mzn-stat: propagators=5733
%%%mzn-stat: failures=73105
%%%mzn-stat: propagations=34680565
%%%mzn-stat: nogoods=73105
%%%mzn-stat: AverageConflictSize=11.118487107584981
%%%mzn-stat: NumUnitNogoodsLearned=170
%%%mzn-stat: AverageLearnedNogoodLength=26.32279597838725
%%%mzn-stat: AverageBacktrackAmount=0
%%%mzn-stat: AverageLbd=12.67961151768005
%%%mzn-stat-end
maxleg = 217;
succ = array1d(1..100,[49, 9, 25, 39, 13, 40, 16, 4, 8, 55, 32, 99, 20, 38, 90, 69, 57, 45, 44, 73, 75, 41, 72, 33, 89, 7, 74, 23, 1, 56, 95, 18, 77, 12, 36, 78, 2, 81, 88, 43, 30, 5, 59, 93, 85, 19, 27, 79, 10, 15, 53, 48, 71, 34, 76, 65, 29, 98, 46, 96, 50, 67, 61, 70, 51, 84, 21, 92, 11, 42, 26, 31, 97, 35, 22, 91, 58, 82, 17, 63, 52, 6, 86, 3, 64, 62, 54, 28, 83, 68, 66, 14, 37, 24, 60, 94, 100, 87, 80, 47]);
% time elapsed: 29.15 s
----------
%%%mzn-stat: initTime=0.06034004
%%%mzn-stat: objective=216
%%%mzn-stat: nodes=113884
%%%mzn-stat: restarts=43
%%%mzn-stat: peakDepth=659
%%%mzn-stat: solveTime=26.61722282
%%%mzn-stat: variables=1076
%%%mzn-stat: propagators=5733
%%%mzn-stat: failures=73413
%%%mzn-stat: propagations=34844671
%%%mzn-stat: nogoods=73413
%%%mzn-stat: AverageConflictSize=11.113399534142454
%%%mzn-stat: NumUnitNogoodsLearned=170
%%%mzn-stat: AverageLearnedNogoodLength=26.310721534333155
%%%mzn-stat: AverageBacktrackAmount=0
%%%mzn-stat: AverageLbd=12.6730551809625
%%%mzn-stat-end
maxleg = 216;
succ = array1d(1..100,[49, 9, 25, 39, 13, 40, 16, 4, 8, 55, 32, 99, 20, 38, 90, 69, 57, 45, 44, 73, 75, 41, 72, 33, 89, 7, 74, 23, 1, 56, 95, 18, 77, 12, 36, 78, 2, 81, 88, 43, 30, 5, 59, 93, 85, 19, 27, 79, 10, 15, 53, 48, 71, 34, 76, 65, 29, 98, 46, 96, 50, 67, 61, 70, 51, 84, 21, 92, 11, 42, 26, 31, 97, 35, 22, 91, 58, 82, 17, 63, 52, 6, 86, 3, 64, 62, 54, 28, 83, 68, 66, 14, 37, 24, 60, 94, 100, 87, 80, 47]);
% time elapsed: 29.27 s
----------
%%%mzn-stat: initTime=0.06034004
%%%mzn-stat: objective=215
%%%mzn-stat: nodes=114872
%%%mzn-stat: restarts=44
%%%mzn-stat: peakDepth=659
%%%mzn-stat: solveTime=26.693003427
%%%mzn-stat: variables=1076
%%%mzn-stat: propagators=5733
%%%mzn-stat: failures=73523
%%%mzn-stat: propagations=34929786
%%%mzn-stat: nogoods=73523
%%%mzn-stat: AverageConflictSize=11.107653387375379
%%%mzn-stat: NumUnitNogoodsLearned=170
%%%mzn-stat: AverageLearnedNogoodLength=26.308787726289733
%%%mzn-stat: AverageBacktrackAmount=0
%%%mzn-stat: AverageLbd=12.671830583626893
%%%mzn-stat-end
maxleg = 215;
succ = array1d(1..100,[49, 9, 25, 39, 13, 40, 16, 4, 8, 55, 32, 99, 20, 38, 90, 69, 57, 45, 44, 73, 75, 41, 72, 33, 89, 7, 74, 23, 1, 56, 95, 18, 77, 12, 36, 78, 2, 81, 88, 43, 30, 5, 59, 93, 85, 19, 27, 79, 10, 15, 53, 48, 71, 34, 76, 65, 29, 98, 46, 96, 50, 67, 61, 70, 51, 84, 21, 92, 11, 42, 26, 31, 97, 35, 22, 91, 58, 82, 17, 63, 52, 6, 86, 3, 64, 62, 54, 28, 83, 68, 66, 14, 37, 24, 60, 94, 100, 87, 80, 47]);
% time elapsed: 29.36 s
----------
%%%mzn-stat: initTime=0.06034004
%%%mzn-stat: objective=214
%%%mzn-stat: nodes=115858
%%%mzn-stat: restarts=45
%%%mzn-stat: peakDepth=659
%%%mzn-stat: solveTime=26.771374652
%%%mzn-stat: variables=1076
%%%mzn-stat: propagators=5733
%%%mzn-stat: failures=73660
%%%mzn-stat: propagations=35011037
%%%mzn-stat: nogoods=73660
%%%mzn-stat: AverageConflictSize=11.104737985338039
%%%mzn-stat: NumUnitNogoodsLearned=170
%%%mzn-stat: AverageLearnedNogoodLength=26.310358403475426
%%%mzn-stat: AverageBacktrackAmount=0
%%%mzn-stat: AverageLbd=12.67337768123812
%%%mzn-stat-end
maxleg = 214;
succ = array1d(1..100,[49, 9, 25, 39, 13, 40, 16, 4, 8, 55, 32, 99, 20, 38, 90, 69, 57, 45, 44, 73, 75, 41, 72, 33, 89, 7, 74, 23, 1, 56, 95, 18, 77, 12, 36, 78, 2, 81, 88, 43, 30, 5, 59, 93, 85, 19, 27, 79, 10, 15, 53, 48, 71, 34, 76, 65, 29, 98, 46, 96, 50, 67, 61, 70, 51, 84, 21, 92, 11, 42, 26, 31, 97, 35, 22, 91, 58, 82, 17, 63, 52, 6, 86, 3, 64, 62, 54, 28, 83, 68, 66, 14, 37, 24, 60, 94, 100, 87, 80, 47]);
% time elapsed: 29.44 s
----------
%%%mzn-stat: initTime=0.06034004
%%%mzn-stat: objective=213
%%%mzn-stat: nodes=117931
%%%mzn-stat: restarts=46
%%%mzn-stat: peakDepth=659
%%%mzn-stat: solveTime=27.130274301
%%%mzn-stat: variables=1076
%%%mzn-stat: propagators=5733
%%%mzn-stat: failures=74694
%%%mzn-stat: propagations=35429464
%%%mzn-stat: nogoods=74694
%%%mzn-stat: AverageConflictSize=11.096661043725065
%%%mzn-stat: NumUnitNogoodsLearned=170
%%%mzn-stat: AverageLearnedNogoodLength=26.25702198302407
%%%mzn-stat: AverageBacktrackAmount=0
%%%mzn-stat: AverageLbd=12.65653198382735
%%%mzn-stat-end
maxleg = 213;
succ = array1d(1..100,[49, 9, 25, 39, 13, 40, 16, 4, 8, 55, 32, 99, 20, 38, 90, 69, 57, 45, 44, 73, 75, 41, 72, 33, 89, 7, 74, 23, 1, 56, 95, 18, 77, 12, 36, 78, 2, 81, 88, 43, 30, 5, 59, 93, 85, 19, 27, 79, 10, 15, 53, 48, 71, 34, 76, 65, 29, 98, 46, 96, 50, 67, 61, 70, 51, 84, 21, 92, 11, 42, 26, 31, 97, 35, 22, 91, 58, 82, 17, 63, 52, 6, 86, 3, 64, 62, 54, 28, 83, 68, 66, 14, 37, 24, 60, 94, 100, 87, 80, 47]);
% time elapsed: 29.79 s
----------
%%%mzn-stat: initTime=0.06034004
%%%mzn-stat: objective=212
%%%mzn-stat: nodes=118767
%%%mzn-stat: restarts=47
%%%mzn-stat: peakDepth=659
%%%mzn-stat: solveTime=27.176103431
%%%mzn-stat: variables=1076
%%%mzn-stat: propagators=5733
%%%mzn-stat: failures=74755
%%%mzn-stat: propagations=35481785
%%%mzn-stat: nogoods=74755
%%%mzn-stat: AverageConflictSize=11.093746237709853
%%%mzn-stat: NumUnitNogoodsLearned=170
%%%mzn-stat: AverageLearnedNogoodLength=26.256344057253695
%%%mzn-stat: AverageBacktrackAmount=0
%%%mzn-stat: AverageLbd=12.658725168885024
%%%mzn-stat-end
maxleg = 212;
succ = array1d(1..100,[49, 9, 25, 39, 13, 40, 16, 4, 8, 55, 32, 99, 20, 38, 90, 69, 57, 45, 44, 73, 75, 41, 72, 33, 89, 7, 74, 23, 1, 56, 95, 18, 77, 12, 36, 78, 2, 81, 88, 43, 30, 5, 59, 93, 85, 19, 27, 79, 10, 15, 53, 48, 71, 34, 76, 65, 29, 98, 46, 96, 50, 67, 61, 70, 51, 84, 21, 92, 11, 42, 26, 31, 97, 35, 22, 91, 58, 82, 17, 63, 52, 6, 86, 3, 64, 62, 54, 28, 83, 68, 66, 14, 37, 24, 60, 94, 100, 87, 80, 47]);
% time elapsed: 29.84 s
----------
%%%mzn-stat: initTime=0.06034004
%%%mzn-stat: objective=211
%%%mzn-stat: nodes=119849
%%%mzn-stat: restarts=48
%%%mzn-stat: peakDepth=659
%%%mzn-stat: solveTime=27.262419142
%%%mzn-stat: variables=1076
%%%mzn-stat: propagators=5733
%%%mzn-stat: failures=74932
%%%mzn-stat: propagations=35590047
%%%mzn-stat: nogoods=74932
%%%mzn-stat: AverageConflictSize=11.092537233758607
%%%mzn-stat: NumUnitNogoodsLearned=170
%%%mzn-stat: AverageLearnedNogoodLength=26.261623872310896
%%%mzn-stat: AverageBacktrackAmount=0
%%%mzn-stat: AverageLbd=12.66325468424705
%%%mzn-stat-end
maxleg = 211;
succ = array1d(1..100,[49, 9, 25, 39, 13, 40, 16, 4, 8, 55, 32, 99, 20, 38, 90, 69, 57, 45, 44, 73, 75, 41, 72, 33, 89, 7, 74, 23, 1, 56, 95, 18, 77, 12, 36, 78, 2, 81, 88, 43, 30, 5, 59, 93, 85, 19, 27, 79, 10, 15, 53, 48, 71, 34, 76, 65, 29, 98, 46, 96, 50, 67, 61, 70, 51, 84, 21, 92, 11, 42, 26, 31, 97, 35, 22, 91, 58, 82, 17, 63, 52, 6, 86, 3, 64, 62, 54, 28, 83, 68, 66, 14, 37, 24, 60, 94, 100, 87, 80, 47]);
% time elapsed: 29.94 s
----------
%%%mzn-stat: initTime=0.06034004
%%%mzn-stat: objective=210
%%%mzn-stat: nodes=121328
%%%mzn-stat: restarts=49
%%%mzn-stat: peakDepth=659
%%%mzn-stat: solveTime=27.460645749
%%%mzn-stat: variables=1076
%%%mzn-stat: propagators=5733
%%%mzn-stat: failures=75381
%%%mzn-stat: propagations=35833599
%%%mzn-stat: nogoods=75381
%%%mzn-stat: AverageConflictSize=11.082487629508762
%%%mzn-stat: NumUnitNogoodsLearned=170
%%%mzn-stat: AverageLearnedNogoodLength=26.23491330706677
%%%mzn-stat: AverageBacktrackAmount=0
%%%mzn-stat: AverageLbd=12.655536541038193
%%%mzn-stat-end
maxleg = 210;
succ = array1d(1..100,[49, 9, 25, 39, 13, 40, 16, 4, 8, 55, 32, 99, 20, 38, 90, 69, 57, 45, 44, 73, 75, 41, 72, 33, 89, 7, 74, 23, 1, 56, 95, 18, 77, 12, 36, 78, 2, 81, 88, 43, 30, 5, 59, 93, 85, 19, 27, 79, 10, 15, 53, 48, 71, 34, 76, 65, 29, 98, 46, 96, 50, 67, 61, 70, 51, 84, 21, 92, 11, 42, 26, 31, 97, 35, 22, 91, 58, 82, 17, 63, 52, 6, 86, 3, 64, 62, 54, 28, 83, 68, 66, 14, 37, 24, 60, 94, 100, 87, 80, 47]);
% time elapsed: 30.13 s
----------
%%%mzn-stat: initTime=0.06034004
%%%mzn-stat: objective=209
%%%mzn-stat: nodes=122198
%%%mzn-stat: restarts=50
%%%mzn-stat: peakDepth=659
%%%mzn-stat: solveTime=27.517524414
%%%mzn-stat: variables=1076
%%%mzn-stat: propagators=5733
%%%mzn-stat: failures=75483
%%%mzn-stat: propagations=35905087
%%%mzn-stat: nogoods=75483
%%%mzn-stat: AverageConflictSize=11.075977372388484
%%%mzn-stat: NumUnitNogoodsLearned=170
%%%mzn-stat: AverageLearnedNogoodLength=26.233310811705948
%%%mzn-stat: AverageBacktrackAmount=0
%%%mzn-stat: AverageLbd=12.658717857000914
%%%mzn-stat-end
maxleg = 209;
succ = array1d(1..100,[49, 9, 25, 39, 13, 40, 16, 4, 8, 55, 32, 99, 20, 38, 90, 69, 57, 45, 44, 73, 75, 41, 72, 33, 89, 7, 74, 23, 1, 56, 95, 18, 77, 12, 36, 78, 2, 81, 88, 43, 30, 5, 59, 93, 85, 19, 27, 79, 10, 15, 53, 48, 71, 34, 76, 65, 29, 98, 46, 96, 50, 67, 61, 70, 51, 84, 21, 92, 11, 42, 26, 31, 97, 35, 22, 91, 58, 82, 17, 63, 52, 6, 86, 3, 64, 62, 54, 28, 83, 68, 66, 14, 37, 24, 60, 94, 100, 87, 80, 47]);
% time elapsed: 30.20 s
----------
%%%mzn-stat: initTime=0.06034004
%%%mzn-stat: objective=208
%%%mzn-stat: nodes=124298
%%%mzn-stat: restarts=51
%%%mzn-stat: peakDepth=659
%%%mzn-stat: solveTime=28.011242484
%%%mzn-stat: variables=1076
%%%mzn-stat: propagators=5733
%%%mzn-stat: failures=76521
%%%mzn-stat: propagations=36490607
%%%mzn-stat: nogoods=76521
%%%mzn-stat: AverageConflictSize=11.05887272774794
%%%mzn-stat: NumUnitNogoodsLearned=170
%%%mzn-stat: AverageLearnedNogoodLength=26.28926699860169
%%%mzn-stat: AverageBacktrackAmount=0
%%%mzn-stat: AverageLbd=12.644149971903138
%%%mzn-stat-end
maxleg = 208;
succ = array1d(1..100,[49, 9, 25, 39, 13, 40, 16, 4, 8, 55, 32, 99, 20, 38, 90, 69, 57, 45, 44, 73, 75, 41, 72, 33, 89, 7, 74, 23, 1, 56, 95, 18, 77, 12, 36, 78, 2, 81, 88, 43, 30, 5, 59, 93, 85, 19, 27, 79, 10, 15, 53, 48, 71, 34, 76, 65, 29, 98, 46, 96, 50, 67, 61, 70, 51, 84, 21, 92, 11, 42, 26, 31, 97, 35, 22, 91, 58, 82, 17, 63, 52, 6, 86, 3, 64, 62, 54, 28, 83, 68, 66, 14, 37, 24, 60, 94, 100, 87, 80, 47]);
% time elapsed: 30.69 s
----------
%%%mzn-stat: initTime=0.06034004
%%%mzn-stat: objective=207
%%%mzn-stat: nodes=125203
%%%mzn-stat: restarts=52
%%%mzn-stat: peakDepth=659
%%%mzn-stat: solveTime=28.077602708
%%%mzn-stat: variables=1076
%%%mzn-stat: propagators=5733
%%%mzn-stat: failures=76638
%%%mzn-stat: propagations=36562069
%%%mzn-stat: nogoods=76638
%%%mzn-stat: AverageConflictSize=11.057464965160886
%%%mzn-stat: NumUnitNogoodsLearned=170
%%%mzn-stat: AverageLearnedNogoodLength=26.287350922518854
%%%mzn-stat: AverageBacktrackAmount=0
%%%mzn-stat: AverageLbd=12.644941151908975
%%%mzn-stat-end
maxleg = 207;
succ = array1d(1..100,[49, 9, 25, 39, 13, 40, 16, 4, 8, 55, 32, 99, 20, 38, 90, 69, 57, 45, 44, 73, 75, 41, 72, 33, 89, 7, 74, 23, 1, 56, 95, 18, 77, 12, 36, 78, 2, 81, 88, 43, 30, 5, 59, 93, 85, 19, 27, 79, 10, 15, 53, 48, 71, 34, 76, 65, 29, 98, 46, 96, 50, 67, 61, 70, 51, 84, 21, 92, 11, 42, 26, 31, 97, 35, 22, 91, 58, 82, 17, 63, 52, 6, 86, 3, 64, 62, 54, 28, 83, 68, 66, 14, 37, 24, 60, 94, 100, 87, 80, 47]);
% time elapsed: 30.77 s
----------
%%%mzn-stat: initTime=0.06034004
%%%mzn-stat: objective=206
%%%mzn-stat: nodes=126637
%%%mzn-stat: restarts=53
%%%mzn-stat: peakDepth=659
%%%mzn-stat: solveTime=28.255145488
%%%mzn-stat: variables=1076
%%%mzn-stat: propagators=5733
%%%mzn-stat: failures=77125
%%%mzn-stat: propagations=36798846
%%%mzn-stat: nogoods=77125
%%%mzn-stat: AverageConflictSize=11.0432414910859
%%%mzn-stat: NumUnitNogoodsLearned=170
%%%mzn-stat: AverageLearnedNogoodLength=26.262508914100486
%%%mzn-stat: AverageBacktrackAmount=0
%%%mzn-stat: AverageLbd=12.62497244732577
%%%mzn-stat-end
maxleg = 206;
succ = array1d(1..100,[49, 9, 25, 39, 13, 40, 16, 4, 8, 55, 32, 99, 20, 38, 90, 69, 57, 45, 44, 73, 75, 41, 72, 33, 89, 7, 74, 23, 1, 56, 95, 18, 77, 12, 36, 78, 2, 81, 88, 43, 30, 5, 59, 93, 85, 19, 27, 79, 10, 15, 53, 48, 71, 34, 76, 65, 29, 98, 46, 96, 50, 67, 61, 70, 51, 84, 21, 92, 11, 42, 26, 31, 97, 35, 22, 91, 58, 82, 17, 63, 52, 6, 86, 3, 64, 62, 54, 28, 83, 68, 66, 14, 37, 24, 60, 94, 100, 87, 80, 47]);
% time elapsed: 30.94 s
----------
%%%mzn-stat: initTime=0.06034004
%%%mzn-stat: objective=205
%%%mzn-stat: nodes=128755
%%%mzn-stat: restarts=54
%%%mzn-stat: peakDepth=659
%%%mzn-stat: solveTime=28.665680367
%%%mzn-stat: variables=1076
%%%mzn-stat: propagators=5733
%%%mzn-stat: failures=77989
%%%mzn-stat: propagations=37255554
%%%mzn-stat: nogoods=77989
%%%mzn-stat: AverageConflictSize=11.012194027362833
%%%mzn-stat: NumUnitNogoodsLearned=170
%%%mzn-stat: AverageLearnedNogoodLength=26.277410916924183
%%%mzn-stat: AverageBacktrackAmount=0
%%%mzn-stat: AverageLbd=12.62616522842965
%%%mzn-stat-end
maxleg = 205;
succ = array1d(1..100,[49, 9, 25, 39, 13, 40, 16, 4, 8, 55, 32, 99, 20, 38, 90, 69, 57, 45, 44, 73, 75, 41, 72, 33, 89, 7, 74, 23, 1, 56, 95, 18, 77, 12, 36, 78, 2, 81, 88, 43, 30, 5, 59, 93, 85, 19, 27, 79, 10, 15, 53, 48, 71, 34, 76, 65, 29, 98, 46, 96, 50, 67, 61, 70, 51, 84, 21, 92, 11, 42, 26, 31, 97, 35, 22, 91, 58, 82, 17, 63, 52, 6, 86, 3, 64, 62, 54, 28, 83, 68, 66, 14, 37, 24, 60, 94, 100, 87, 80, 47]);
% time elapsed: 31.36 s
----------
%%%mzn-stat: initTime=0.06034004
%%%mzn-stat: objective=204
%%%mzn-stat: nodes=131206
%%%mzn-stat: restarts=55
%%%mzn-stat: peakDepth=659
%%%mzn-stat: solveTime=29.163645397
%%%mzn-stat: variables=1076
%%%mzn-stat: propagators=5733
%%%mzn-stat: failures=79342
%%%mzn-stat: propagations=37879437
%%%mzn-stat: nogoods=79342
%%%mzn-stat: AverageConflictSize=11.006528698545537
%%%mzn-stat: NumUnitNogoodsLearned=170
%%%mzn-stat: AverageLearnedNogoodLength=26.26664313982506
%%%mzn-stat: AverageBacktrackAmount=0
%%%mzn-stat: AverageLbd=12.592221017871998
%%%mzn-stat-end
maxleg = 204;
succ = array1d(1..100,[49, 9, 25, 39, 13, 40, 16, 4, 8, 55, 32, 99, 20, 38, 90, 69, 57, 45, 44, 73, 75, 41, 72, 33, 89, 7, 74, 23, 1, 56, 95, 18, 77, 12, 36, 78, 2, 81, 88, 43, 30, 5, 59, 93, 85, 19, 27, 79, 10, 15, 53, 48, 71, 34, 76, 65, 29, 98, 46, 96, 50, 67, 61, 70, 51, 84, 21, 92, 11, 42, 26, 31, 97, 35, 22, 91, 58, 82, 17, 63, 52, 6, 86, 3, 64, 62, 54, 28, 83, 68, 66, 14, 37, 24, 60, 94, 100, 87, 80, 47]);
% time elapsed: 31.85 s
----------
%%%mzn-stat: initTime=0.06034004
%%%mzn-stat: objective=203
%%%mzn-stat: nodes=131980
%%%mzn-stat: restarts=56
%%%mzn-stat: peakDepth=659
%%%mzn-stat: solveTime=29.201573911
%%%mzn-stat: variables=1076
%%%mzn-stat: propagators=5733
%%%mzn-stat: failures=79395
%%%mzn-stat: propagations=37922623
%%%mzn-stat: nogoods=79395
%%%mzn-stat: AverageConflictSize=11.00656212607847
%%%mzn-stat: NumUnitNogoodsLearned=170
%%%mzn-stat: AverageLearnedNogoodLength=26.275558914289313
%%%mzn-stat: AverageBacktrackAmount=0
%%%mzn-stat: AverageLbd=12.597027520624724
%%%mzn-stat-end
maxleg = 203;
succ = array1d(1..100,[49, 9, 25, 39, 13, 40, 16, 4, 8, 55, 32, 99, 20, 38, 90, 69, 57, 45, 44, 73, 75, 41, 72, 33, 89, 7, 74, 23, 1, 56, 95, 18, 77, 12, 36, 78, 2, 81, 88, 43, 30, 5, 59, 93, 85, 19, 27, 79, 10, 15, 53, 48, 71, 34, 76, 65, 29, 98, 46, 96, 50, 67, 61, 70, 51, 84, 21, 92, 11, 42, 26, 31, 97, 35, 22, 91, 58, 82, 17, 63, 52, 6, 86, 3, 64, 62, 54, 28, 83, 68, 66, 14, 37, 24, 60, 94, 100, 87, 80, 47]);
% time elapsed: 31.90 s
----------
%%%mzn-stat: initTime=0.06034004
%%%mzn-stat: objective=203
%%%mzn-stat: nodes=4282216
%%%mzn-stat: restarts=7916
%%%mzn-stat: peakDepth=659
%%%mzn-stat: solveTime=1797.339758087
%%%mzn-stat: variables=1076
%%%mzn-stat: propagators=5733
%%%mzn-stat: failures=3060161
%%%mzn-stat: propagations=1339338081
%%%mzn-stat: nogoods=3060161
%%%mzn-stat: AverageConflictSize=20.343545976829322
%%%mzn-stat: NumUnitNogoodsLearned=170
%%%mzn-stat: AverageLearnedNogoodLength=44.47260617987093
%%%mzn-stat: AverageBacktrackAmount=0
%%%mzn-stat: AverageLbd=12.336419227615801
%%%mzn-stat-end
